c CNF file generated from BLIF2CNF script.
c Original BLIF file was blif/cordic.blif
p cnf 295 636
-1 -4 0
-2 -4 0
4 1 2  0
-4 3 0
-3 4  0
-5 -7 0
7 5  0
-7 6 0
-6 7  0
-8 -10 0
10 8  0
-10 9 0
-9 10  0
-11 -13 0
13 11  0
-13 12 0
-12 13  0
-3 -15 0
15 3  0
-15 14 0
-6 -16 0
16 6  0
-16 14 0
-9 -17 0
17 9  0
-17 14 0
-12 -18 0
18 12  0
-18 14 0
-14 15 16 17 18  0
-19 -21 0
21 19  0
-21 20 0
-20 21  0
-1 -23 0
23 1  0
-23 22 0
-22 23  0
-8 -25 0
25 8  0
-25 24 0
-11 -26 0
26 11  0
-26 24 0
-6 -27 0
27 6  0
-27 24 0
-22 -28 0
28 22  0
-28 24 0
-24 25 26 27 28  0
-29 -32 0
32 29  0
-32 31 0
-30 -33 0
33 30  0
-33 31 0
-31 32 33  0
-31 -36 0
36 31  0
-36 35 0
-34 -37 0
37 34  0
-37 35 0
-35 36 37  0
-38 -40 0
40 38  0
-40 39 0
-39 40  0
-41 -43 0
43 41  0
-43 42 0
-42 43  0
-39 -45 0
-42 -45 0
45 39 42  0
-45 44 0
-44 45  0
-46 -48 0
48 46  0
-48 47 0
-47 48  0
-44 -50 0
-47 -50 0
50 44 47  0
-50 49 0
-49 50  0
-38 -52 0
-41 -52 0
52 38 41  0
-52 51 0
-51 52  0
-46 -54 0
-51 -54 0
54 46 51  0
-54 53 0
-53 54  0
-49 -56 0
-53 -56 0
56 49 53  0
-56 55 0
-55 56  0
-34 -58 0
58 34  0
-58 57 0
-57 58  0
-29 -60 0
60 29  0
-60 59 0
-59 60  0
-30 -62 0
62 30  0
-62 61 0
-61 62  0
-59 -64 0
64 59  0
-64 63 0
-61 -65 0
65 61  0
-65 63 0
-63 64 65  0
-57 -67 0
67 57  0
-67 66 0
-63 -68 0
68 63  0
-68 66 0
-66 67 68  0
-12 -70 0
70 12  0
-70 69 0
-8 -71 0
71 8  0
-71 69 0
-22 -72 0
72 22  0
-72 69 0
-5 -73 0
73 5  0
-73 69 0
-69 70 71 72 73  0
-74 -76 0
76 74  0
-76 75 0
-75 76  0
-75 -79 0
79 75  0
-79 78 0
-77 -80 0
80 77  0
-80 78 0
-78 79 80  0
-77 -82 0
82 77  0
-82 81 0
-81 82  0
-81 -84 0
84 81  0
-84 83 0
-74 -85 0
85 74  0
-85 83 0
-83 84 85  0
-78 -87 0
87 78  0
-87 86 0
-83 -88 0
88 83  0
-88 86 0
-86 87 88  0
-86 -90 0
90 86  0
-90 89 0
-89 90  0
-91 -93 0
93 91  0
-93 92 0
-92 93  0
-92 -96 0
96 92  0
-96 95 0
-94 -97 0
97 94  0
-97 95 0
-95 96 97  0
-94 -99 0
99 94  0
-99 98 0
-98 99  0
-98 -101 0
101 98  0
-101 100 0
-91 -102 0
102 91  0
-102 100 0
-100 101 102  0
-95 -104 0
104 95  0
-104 103 0
-100 -105 0
105 100  0
-105 103 0
-103 104 105  0
-89 -107 0
-103 -107 0
107 89 103  0
-107 106 0
-106 107  0
-108 -110 0
110 108  0
-110 109 0
-109 110  0
-111 -114 0
-112 -114 0
-109 -114 0
114 111 112 109  0
-114 113 0
-113 114  0
-111 -116 0
116 111  0
-116 115 0
-115 116  0
-112 -118 0
118 112  0
-118 117 0
-117 118  0
-115 -120 0
-108 -120 0
-117 -120 0
120 115 108 117  0
-120 119 0
-119 120  0
-106 -122 0
-113 -122 0
-119 -122 0
122 106 113 119  0
-122 121 0
-121 122  0
-123 -125 0
125 123  0
-125 124 0
-124 125  0
-124 -128 0
128 124  0
-128 127 0
-126 -129 0
129 126  0
-129 127 0
-127 128 129  0
-126 -131 0
131 126  0
-131 130 0
-130 131  0
-130 -133 0
133 130  0
-133 132 0
-123 -134 0
134 123  0
-134 132 0
-132 133 134  0
-127 -136 0
136 127  0
-136 135 0
-132 -137 0
137 132  0
-137 135 0
-135 136 137  0
-138 -140 0
140 138  0
-140 139 0
-139 140  0
-139 -143 0
143 139  0
-143 142 0
-141 -144 0
144 141  0
-144 142 0
-142 143 144  0
-141 -146 0
146 141  0
-146 145 0
-145 146  0
-145 -148 0
148 145  0
-148 147 0
-138 -149 0
149 138  0
-149 147 0
-147 148 149  0
-142 -151 0
151 142  0
-151 150 0
-147 -152 0
152 147  0
-152 150 0
-150 151 152  0
-150 -154 0
154 150  0
-154 153 0
-153 154  0
-135 -156 0
156 135  0
-156 155 0
-153 -157 0
157 153  0
-157 155 0
-155 156 157  0
-103 -159 0
159 103  0
-159 158 0
-89 -160 0
160 89  0
-160 158 0
-158 159 160  0
-135 -162 0
162 135  0
-162 161 0
-161 162  0
-150 -164 0
164 150  0
-164 163 0
-161 -165 0
165 161  0
-165 163 0
-163 164 165  0
-121 -167 0
167 121  0
-167 166 0
-155 -168 0
168 155  0
-168 166 0
-158 -169 0
169 158  0
-169 166 0
-163 -170 0
170 163  0
-170 166 0
-166 167 168 169 170  0
-69 -172 0
172 69  0
-172 171 0
-166 -173 0
173 166  0
-173 171 0
-171 172 173  0
-35 -175 0
175 35  0
-175 174 0
-55 -176 0
176 55  0
-176 174 0
-66 -177 0
177 66  0
-177 174 0
-171 -178 0
178 171  0
-178 174 0
-174 175 176 177 178  0
-24 -180 0
180 24  0
-180 179 0
-174 -181 0
181 174  0
-181 179 0
-179 180 181  0
-20 -183 0
183 20  0
-183 182 0
-179 -184 0
184 179  0
-184 182 0
-182 183 184  0
-14 -186 0
186 14  0
-186 185 0
-182 -187 0
187 182  0
-187 185 0
-185 186 187  0
-185 -189 0
189 185  0
-189 188 0
-188 189  0
-145 -191 0
191 145  0
-191 190 0
-139 -192 0
192 139  0
-192 190 0
-190 191 192  0
-141 -194 0
194 141  0
-194 193 0
-138 -195 0
195 138  0
-195 193 0
-193 194 195  0
-190 -197 0
197 190  0
-197 196 0
-193 -198 0
198 193  0
-198 196 0
-196 197 198  0
-124 -200 0
200 124  0
-200 199 0
-126 -201 0
201 126  0
-201 199 0
-199 200 201  0
-130 -203 0
203 130  0
-203 202 0
-123 -204 0
204 123  0
-204 202 0
-202 203 204  0
-199 -206 0
206 199  0
-206 205 0
-202 -207 0
207 202  0
-207 205 0
-205 206 207  0
-205 -209 0
209 205  0
-209 208 0
-208 209  0
-196 -211 0
211 196  0
-211 210 0
-208 -212 0
212 208  0
-212 210 0
-210 211 212  0
-196 -214 0
214 196  0
-214 213 0
-213 214  0
-205 -216 0
216 205  0
-216 215 0
-213 -217 0
217 213  0
-217 215 0
-215 216 217  0
-210 -219 0
219 210  0
-219 218 0
-215 -220 0
220 215  0
-220 218 0
-218 219 220  0
-41 -222 0
-38 -222 0
-46 -222 0
222 41 38 46  0
-222 221 0
-221 222  0
-42 -224 0
-47 -224 0
-39 -224 0
224 42 47 39  0
-224 223 0
-223 224  0
-221 -226 0
-223 -226 0
226 221 223  0
-226 225 0
-225 226  0
-30 -228 0
-29 -228 0
-34 -228 0
228 30 29 34  0
-228 227 0
-227 228  0
-61 -230 0
-57 -230 0
-59 -230 0
230 61 57 59  0
-230 229 0
-229 230  0
-227 -232 0
-229 -232 0
232 227 229  0
-232 231 0
-231 232  0
-225 -234 0
-231 -234 0
234 225 231  0
-234 233 0
-233 234  0
-81 -236 0
236 81  0
-236 235 0
-75 -237 0
237 75  0
-237 235 0
-235 236 237  0
-77 -239 0
239 77  0
-239 238 0
-74 -240 0
240 74  0
-240 238 0
-238 239 240  0
-235 -242 0
242 235  0
-242 241 0
-238 -243 0
243 238  0
-243 241 0
-241 242 243  0
-92 -245 0
245 92  0
-245 244 0
-94 -246 0
246 94  0
-246 244 0
-244 245 246  0
-98 -248 0
248 98  0
-248 247 0
-91 -249 0
249 91  0
-249 247 0
-247 248 249  0
-244 -251 0
251 244  0
-251 250 0
-247 -252 0
252 247  0
-252 250 0
-250 251 252  0
-250 -254 0
254 250  0
-254 253 0
-253 254  0
-241 -256 0
256 241  0
-256 255 0
-253 -257 0
257 253  0
-257 255 0
-255 256 257  0
-241 -259 0
259 241  0
-259 258 0
-258 259  0
-250 -261 0
261 250  0
-261 260 0
-258 -262 0
262 258  0
-262 260 0
-260 261 262  0
-255 -264 0
264 255  0
-264 263 0
-260 -265 0
265 260  0
-265 263 0
-263 264 265  0
-117 -267 0
267 117  0
-267 266 0
-115 -268 0
268 115  0
-268 266 0
-266 267 268  0
-266 -270 0
270 266  0
-270 269 0
-108 -271 0
271 108  0
-271 269 0
-269 270 271  0
-111 -273 0
273 111  0
-273 272 0
-112 -274 0
274 112  0
-274 272 0
-272 273 274  0
-109 -276 0
276 109  0
-276 275 0
-272 -277 0
277 272  0
-277 275 0
-275 276 277  0
-269 -279 0
279 269  0
-279 278 0
-275 -280 0
280 275  0
-280 278 0
-278 279 280  0
-218 -282 0
282 218  0
-282 281 0
-233 -283 0
283 233  0
-283 281 0
-263 -284 0
284 263  0
-284 281 0
-278 -285 0
285 278  0
-285 281 0
-281 282 283 284 285  0
-24 -287 0
287 24  0
-287 286 0
-69 -288 0
288 69  0
-288 286 0
-281 -289 0
289 281  0
-289 286 0
-286 287 288 289  0
-20 -291 0
291 20  0
-291 290 0
-286 -292 0
292 286  0
-292 290 0
-290 291 292  0
-14 -294 0
294 14  0
-294 293 0
-290 -295 0
295 290  0
-295 293 0
-293 294 295  0
